NAME : rdp104.985324.tour
COMMENT : Cost = 0_985324
COMMENT : Found by LKH [Keld Helsgaun] Thu Sep 14 15:50:26 2017
TYPE : TOUR
DIMENSION : 110
TOUR_SECTION
1
7
6
61
84
46
9
47
48
49
83
19
90
103
98
43
15
45
39
87
17
92
99
38
101
96
106
54
14
59
108
28
70
77
80
30
25
69
81
13
27
102
32
89
63
12
65
50
37
20
8
53
110
73
76
57
24
68
40
56
5
26
55
107
3
44
16
88
58
42
23
75
74
22
41
105
93
60
100
85
18
62
86
94
97
95
109
11
64
91
33
67
66
72
21
31
71
104
2
51
34
82
52
10
36
35
79
4
78
29
-1
EOF
